(set-info :status unknown)
(declare-fun a3 () Real)
(declare-fun a2 () Real)
(assert
 (forall ((x Real) )(let (($x53 (>= (+ (+ 1.0 (* a2 x)) (* a3 (^ x 2.0))) 0.0)))
 (let (($x54 (<= x 5.0)))
 (let (($x55 (>= x (- 5.0))))
 (let (($x56 (and $x55 $x54)))
 (=> (and (>= (* x (- 1.0 x)) 0.0) $x56) $x53))))))
 )
(assert
 (forall ((x Real) )(let ((?x69 (+ (+ 1.0 (* a2 (* (* (- (/ 8.0 5.0)) x) (- 1.0 x)))) (* a3 (^ (* (* (- (/ 8.0 5.0)) x) (- 1.0 x)) 2.0)))))
 (let (($x54 (<= x 5.0)))
 (let (($x55 (>= x (- 5.0))))
 (let (($x56 (and $x55 $x54)))
 (let (($x74 (>= (* (+ x (/ 3.0 10.0)) (- (/ 17.0 10.0) x)) 0.0)))
 (let (($x53 (>= (+ (+ 1.0 (* a2 x)) (* a3 (^ x 2.0))) 0.0)))
 (=> (and $x53 $x74 $x56) (>= ?x69 0.0)))))))))
 )
(assert
 (forall ((x Real) )(let (($x54 (<= x 5.0)))
 (let (($x55 (>= x (- 5.0))))
 (let (($x56 (and $x55 $x54)))
 (let (($x53 (>= (+ (+ 1.0 (* a2 x)) (* a3 (^ x 2.0))) 0.0)))
 (let (($x84 (and $x53 (not (>= (* (+ x (/ 3.0 10.0)) (- (/ 17.0 10.0) x)) 0.0)) $x56)))
 (=> $x84 (<= (* (- x (/ 3.0 2.0)) (+ x 1.0)) 0.0))))))))
 )
(check-sat)
